(set-logic ALL)
(declare-const BAV1 Bool)
(get-model)
(get-model)
(declare-const BAV2 Bool)
(declare-const BAV3 Bool)
(declare-const BAV4 Bool)
(get-model)
(declare-const BAV5 Bool)
(declare-const BAV6 Bool)
(declare-const BAV7 Bool)
(declare-const BAV8 Bool)
(get-model)
(declare-const BAV9 Bool)
(declare-const BAV10 Bool)
(declare-const BAV11 Bool)
(declare-const BAV12 Bool)
(declare-const BAV13 Bool)
(declare-const BAV14 Bool)
(declare-const BAV15 Bool)
(declare-const BAV16 Bool)
(declare-const BAV17 Bool)
(declare-const BAV18 Bool)
(declare-const BAV19 Bool)
(declare-const BAV20 Bool)
(declare-const BAV21 Bool)
(declare-const BAV22 Bool)
(declare-const BAV23 Bool)
(declare-const BAV24 Bool)
(declare-const BAV25 Bool)
(declare-const BAV26 Bool)
(declare-const BAV27 Bool)
(declare-const BAV28 Bool)
(declare-const BAV29 Bool)
(declare-const BAV30 Bool)
(declare-const BAV31 Bool)
(declare-const BAV32 Bool)
(declare-const BAV33 Bool)
(declare-const BAV34 Bool)
(declare-const BAV35 Bool)
(declare-const BAV36 Bool)
(declare-const BAV37 Bool)
(declare-const BAV38 Bool)
(declare-const BAV39 Bool)
(declare-const BAV40 Bool)
(declare-const BAV41 Bool)
(declare-const GEN60 Int)
(declare-const GEN59 Int)
(declare-const GEN58 Int)
(declare-const GEN57 Int)
(declare-const GEN56 Int)
(declare-const GEN55 Int)
(declare-const GEN54 Int)
(declare-const GEN53 Int)
(declare-const GEN52 Int)
(declare-const GEN51 Int)
(declare-const GEN50 Int)
(declare-const GEN49 Int)
(declare-const GEN48 Int)
(declare-const GEN47 Int)
(declare-const GEN46 Int)
(declare-const GEN45 Int)
(declare-const GEN44 Int)
(declare-const GEN43 Int)
(declare-const GEN42 Int)
(declare-const GEN41 Int)
(declare-const GEN40 Int)
(declare-const GEN39 Int)
(declare-const GEN38 Int)
(declare-const GEN37 Int)
(declare-const GEN36 Int)
(declare-const GEN35 Int)
(declare-const GEN34 Int)
(declare-const GEN33 Int)
(declare-const GEN32 Int)
(declare-const GEN31 Int)
(declare-const GEN30 Int)
(declare-const GEN29 Int)
(declare-const GEN28 Int)
(declare-const GEN27 Int)
(declare-const GEN26 Int)
(declare-const GEN25 Int)
(declare-const GEN24 Int)
(declare-const GEN23 Int)
(declare-const GEN22 Int)
(declare-const GEN21 Int)
(declare-const GEN20 Int)
(declare-const GEN19 Int)
(declare-const GEN18 Int)
(declare-const GEN17 Int)
(declare-const GEN16 Int)
(declare-const GEN15 Int)
(declare-const GEN14 Int)
(declare-const GEN13 Int)
(declare-const GEN12 Int)
(declare-const GEN11 Int)
(declare-const GEN10 Int)
(declare-const GEN9 Int)
(declare-const GEN8 Int)
(declare-const GEN7 Int)
(declare-const GEN6 Int)
(declare-const GEN5 Int)
(declare-const GEN4 Int)
(declare-const GEN3 Int)
(declare-const GEN2 Int)
(declare-const GEN1 Int)
(declare-fun x0 () Real)
(declare-fun x1 () Real)
(declare-fun x2 () Real)
(assert (or (= (+ (* GEN1 x1) (* (- GEN2) x0) (* GEN3 x1)) GEN4) (not (= (+ (* GEN5 x1) (* GEN6 x1) (* (- GEN7) x2)) GEN8)) (< (+ (* (- GEN9) x1) (* (- GEN10) x0)) GEN11)))
(assert (or (<= (+ (* (- GEN12) x2) (* (- GEN13) x1)) (- GEN14)) (not (> (+ (* (- GEN15) x2) (* GEN16 x0)) (- GEN17)))))
(assert (= BAV1 (or (= (+ (* GEN1 x1) (* (- GEN2) x0) (* GEN3 x1)) GEN4) (not (= (+ (* GEN5 x1) (* GEN6 x1) (* (- GEN7) x2)) GEN8)) (< (+ (* (- GEN9) x1) (* (- GEN10) x0)) GEN11))))
(assert (= BAV2 (= (+ (* GEN1 x1) (* (- GEN2) x0) (* GEN3 x1)) GEN4)))
(assert (= BAV3 (= (+ (* GEN5 x1) (* GEN6 x1) (* (- GEN7) x2)) GEN8)))
(assert (= BAV4 (< (+ (* (- GEN9) x1) (* (- GEN10) x0)) GEN11)))
(assert (= BAV5 (or (<= (+ (* (- GEN12) x2) (* (- GEN13) x1)) (- GEN14)) (not (> (+ (* (- GEN15) x2) (* GEN16 x0)) (- GEN17))))))
(assert (= BAV6 (<= (+ (* (- GEN12) x2) (* (- GEN13) x1)) (- GEN14))))
(assert (= BAV7 (> (+ (* (- GEN15) x2) (* GEN16 x0)) (- GEN17))))
(assert (= BAV8 (or (> (+ (* GEN18 x0) (* GEN19 x2)) GEN20) (>= (+ (* GEN21 x2) (* GEN22 x2) (* GEN23 x1)) (- GEN24)))))
(assert (= BAV9 (> (+ (* GEN18 x0) (* GEN19 x2)) GEN20)))
(assert (= BAV10 (>= (+ (* GEN21 x2) (* GEN22 x2) (* GEN23 x1)) (- GEN24))))
(assert (= BAV11 (or (= (+ (* (- GEN25) x0) (* GEN26 x0)) GEN27) (<= (+ (* GEN28 x1) (* GEN29 x0) (* GEN30 x0) (* (- GEN31) x2)) (- GEN32)))))
(assert (= BAV12 (= (+ (* (- GEN25) x0) (* GEN26 x0)) GEN27)))
(assert (= BAV13 (<= (+ (* GEN28 x1) (* GEN29 x0) (* GEN30 x0) (* (- GEN31) x2)) (- GEN32))))
(assert (= BAV14 (or (not (<= (+ (* (- GEN33) x2) (* (- GEN34) x1) (* GEN35 x2)) GEN36)) (>= (+ (* GEN37 x2) (* GEN38 x0) (* (- GEN39) x0) (* (- GEN40) x1)) (- GEN41)))))
(assert (= BAV15 (<= (+ (* (- GEN33) x2) (* (- GEN34) x1) (* GEN35 x2)) GEN36)))
(assert (= BAV16 (>= (+ (* GEN37 x2) (* GEN38 x0) (* (- GEN39) x0) (* (- GEN40) x1)) (- GEN41))))
(assert (= BAV17 (or (> (+ (* GEN42 x1) (* GEN43 x2)) GEN44) (not (<= (+ (* GEN45 x2) (* GEN46 x1) (* (- GEN47) x2) (* (- GEN48) x2)) (- GEN49))))))
(assert (= BAV18 (> (+ (* GEN42 x1) (* GEN43 x2)) GEN44)))
(assert (= BAV19 (<= (+ (* GEN45 x2) (* GEN46 x1) (* (- GEN47) x2) (* (- GEN48) x2)) (- GEN49))))
(assert (= BAV20 (<= (+ (* GEN50 x0) (* (- GEN51) x0) (* GEN52 x1)) GEN53)))
(assert (= BAV21 (or (> (+ (* GEN54 x1) (* (- GEN55) x2)) (- GEN56)) (not (< (+ (* (- GEN57) x2) (* (- GEN58) x2) (* (- GEN59) x2) (* (- GEN60) x1)) 20)) (>= (+ (* 8 x2) (* 47 x1) (* (- 21) x2) (* 41 x0)) 13))))
(assert (= BAV22 (> (+ (* GEN54 x1) (* (- GEN55) x2)) (- GEN56))))
(assert (= BAV23 (< (+ (* (- GEN57) x2) (* (- GEN58) x2) (* (- GEN59) x2) (* (- GEN60) x1)) 20)))
(assert (= BAV24 (>= (+ (* 8 x2) (* 47 x1) (* (- 21) x2) (* 41 x0)) 13)))
(assert (= BAV25 (or (> (+ (* (- 26) x2) (* 9 x0) (* (- 47) x1) (* (- 30) x0)) (- 12)) (not (>= (+ (* 3 x0) (* 24 x0)) (- 10))))))
(assert (= BAV26 (> (+ (* (- 26) x2) (* 9 x0) (* (- 47) x1) (* (- 30) x0)) (- 12))))
(assert (= BAV27 (>= (+ (* 3 x0) (* 24 x0)) (- 10))))
(assert (= BAV28 (or (= (+ (* (- 27) x1) (* 34 x2) (* (- 14) x2) (* (- 24) x1)) (- 38)) (<= (+ (* (- 41) x2) (* 36 x1) (* (- 44) x2) (* (- 19) x2)) 9))))
(assert (= BAV29 (= (+ (* (- 27) x1) (* 34 x2) (* (- 14) x2) (* (- 24) x1)) (- 38))))
(assert (= BAV30 (<= (+ (* (- 41) x2) (* 36 x1) (* (- 44) x2) (* (- 19) x2)) 9)))
(assert (= BAV31 (or (not (<= (+ (* (- 2) x1) (* (- 7) x1)) 45)) (<= (+ (* (- 39) x0) (* (- 18) x2)) (- 13)))))
(assert (= BAV32 (<= (+ (* (- 2) x1) (* (- 7) x1)) 45)))
(assert (= BAV33 (<= (+ (* (- 39) x0) (* (- 18) x2)) (- 13))))
(assert (= BAV34 (or (= (+ (* (- 32) x2) (* 37 x2)) (- 26)) (< (+ (* 26 x0) (* 4 x1)) (- 32)))))
(assert (= BAV35 (= (+ (* (- 32) x2) (* 37 x2)) (- 26))))
(assert (= BAV36 (< (+ (* 26 x0) (* 4 x1)) (- 32))))
(assert (= BAV37 (or (< (+ (* (- 23) x2) (* (- 14) x2) (* 3 x1)) (- 39)) (not (> (+ (* 48 x1) (* 14 x0)) (- 32))) (>= (+ (* (- 10) x0) (* (- 46) x0)) 12))))
(assert (= BAV38 (< (+ (* (- 23) x2) (* (- 14) x2) (* 3 x1)) (- 39))))
(assert (= BAV39 (> (+ (* 48 x1) (* 14 x0)) (- 32))))
(assert (= BAV40 (>= (+ (* (- 10) x0) (* (- 46) x0)) 12)))
(assert (= BAV41 (< (+ (* (- 41) x1) (* (- 42) x1) (* 41 x1)) (- 36))))
(check-sat)
(get-model)
(push 1)
(assert (or (> (+ (* GEN18 x0) (* GEN19 x2)) GEN20) (>= (+ (* GEN21 x2) (* GEN22 x2) (* GEN23 x1)) (- GEN24))))
(assert (or (= (+ (* (- GEN25) x0) (* GEN26 x0)) GEN27) (<= (+ (* GEN28 x1) (* GEN29 x0) (* GEN30 x0) (* (- GEN31) x2)) (- GEN32))))
(assert (or (not (<= (+ (* (- GEN33) x2) (* (- GEN34) x1) (* GEN35 x2)) GEN36)) (>= (+ (* GEN37 x2) (* GEN38 x0) (* (- GEN39) x0) (* (- GEN40) x1)) (- GEN41))))
(assert (or (> (+ (* GEN42 x1) (* GEN43 x2)) GEN44) (not (<= (+ (* GEN45 x2) (* GEN46 x1) (* (- GEN47) x2) (* (- GEN48) x2)) (- GEN49)))))
(assert (not (<= (+ (* GEN50 x0) (* (- GEN51) x0) (* GEN52 x1)) GEN53)))
(assert (or (> (+ (* GEN54 x1) (* (- GEN55) x2)) (- GEN56)) (not (< (+ (* (- GEN57) x2) (* (- GEN58) x2) (* (- GEN59) x2) (* (- GEN60) x1)) 20)) (>= (+ (* 8 x2) (* 47 x1) (* (- 21) x2) (* 41 x0)) 13)))
(assert (or (> (+ (* (- 26) x2) (* 9 x0) (* (- 47) x1) (* (- 30) x0)) (- 12)) (not (>= (+ (* 3 x0) (* 24 x0)) (- 10)))))
(check-sat)
(push 1)
(assert (or (= (+ (* (- 27) x1) (* 34 x2) (* (- 14) x2) (* (- 24) x1)) (- 38)) (<= (+ (* (- 41) x2) (* 36 x1) (* (- 44) x2) (* (- 19) x2)) 9)))
(assert (or (not (<= (+ (* (- 2) x1) (* (- 7) x1)) 45)) (<= (+ (* (- 39) x0) (* (- 18) x2)) (- 13))))
(assert (or (= (+ (* (- 32) x2) (* 37 x2)) (- 26)) (< (+ (* 26 x0) (* 4 x1)) (- 32))))
(check-sat)
(push 1)
(check-sat)
(pop 1)
(assert (or (< (+ (* (- 23) x2) (* (- 14) x2) (* 3 x1)) (- 39)) (not (> (+ (* 48 x1) (* 14 x0)) (- 32))) (>= (+ (* (- 10) x0) (* (- 46) x0)) 12)))
(check-sat)
(pop 1)
(assert (< (+ (* (- 41) x1) (* (- 42) x1) (* 41 x1)) (- 36)))
(check-sat)